36 40
7 4 1
3 1 2
7 6 1
2 8 1
4 9 2
2 6 1
7 7 1
6 3 1
7 2 2
8 3 1
3 4 1
9 1 1
1 8 1
10 1 1
6 7 1
5 9 1
7 3 1
3 8 1
9 6 1
5 2 1
1 5 1
4 8 1
3 6 1
10 7 1
10 5 1
2 5 1
9 5 1
6 9 1
2 10 1
9 9 1
2 7 2
2 1 1
9 8 1
10 2 1
10 3 1
1 3 1
10 10 
10 10 
10 10 
10 10 
10 10 
10 10 
10 10 
10 10 
10 10 
10 10 
10 10 
10 10 
10 10 
10 10 
10 10 
10 10 
10 10 
10 10 
10 10 
10 10 
10 10 
10 10 
10 10 
10 10 
10 10 
10 10 
10 10 
10 10 
10 10 
10 10 
10 10 
10 10 
10 10 
10 10 
10 10 
10 10 
10 10 
10 10 
10 10 
10 10 
